*HEADING
R4 FE front rotor ring rpm=24000.0 thermal=True
*NODE
1, 52.950000, 0.000000, 0.000000
2, 61.325000, 0.000000, 0.000000
3, 69.700000, 0.000000, 0.000000
4, 48.919421, 20.263088, 0.000000
5, 56.656912, 23.468061, 0.000000
6, 64.394403, 26.673035, 0.000000
7, 37.441304, 37.441304, 0.000000
8, 43.363323, 43.363323, 0.000000
9, 49.285343, 49.285343, 0.000000
10, 20.263088, 48.919421, 0.000000
11, 23.468061, 56.656912, 0.000000
12, 26.673035, 64.394403, 0.000000
13, 0.000000, 52.950000, 0.000000
14, 0.000000, 61.325000, 0.000000
15, 0.000000, 69.700000, 0.000000
16, 52.950000, 0.000000, 32.500000
17, 61.325000, 0.000000, 32.500000
18, 69.700000, 0.000000, 32.500000
19, 48.919421, 20.263088, 32.500000
20, 56.656912, 23.468061, 32.500000
21, 64.394403, 26.673035, 32.500000
22, 37.441304, 37.441304, 32.500000
23, 43.363323, 43.363323, 32.500000
24, 49.285343, 49.285343, 32.500000
25, 20.263088, 48.919421, 32.500000
26, 23.468061, 56.656912, 32.500000
27, 26.673035, 64.394403, 32.500000
28, 0.000000, 52.950000, 32.500000
29, 0.000000, 61.325000, 32.500000
30, 0.000000, 69.700000, 32.500000
*ELEMENT, TYPE=C3D8, ELSET=SOLID
1, 1, 2, 5, 4, 16, 17, 20, 19
2, 2, 3, 6, 5, 17, 18, 21, 20
3, 4, 5, 8, 7, 19, 20, 23, 22
4, 5, 6, 9, 8, 20, 21, 24, 23
5, 7, 8, 11, 10, 22, 23, 26, 25
6, 8, 9, 12, 11, 23, 24, 27, 26
7, 10, 11, 14, 13, 25, 26, 29, 28
8, 11, 12, 15, 14, 26, 27, 30, 29
*NSET, NSET=SYM0
1, 2, 3, 16, 17, 18
*NSET, NSET=SYM90
13, 14, 15, 28, 29, 30
*NSET, NSET=FIXZ
1, 2, 3, 4, 5, 6, 7, 8, 9, 10, 11, 12, 13, 14, 15
*NSET, NSET=ALLN
1, 2, 3, 4, 5, 6, 7, 8, 9, 10, 11, 12, 13, 14, 15, 16
17, 18, 19, 20, 21, 22, 23, 24, 25, 26, 27, 28, 29, 30
*MATERIAL, NAME=Steel
*ELASTIC
210000.0, 0.300
*DENSITY
7.810000e-09
*EXPANSION
1.200000e-05
*SOLID SECTION, ELSET=SOLID, MATERIAL=Steel
*BOUNDARY
SYM0, 2, 2
SYM90, 1, 1
FIXZ, 3, 3
*INITIAL CONDITIONS, TYPE=TEMPERATURE
ALLN, 20.000
*STEP
*STATIC
*DLOAD
SOLID, CENTRIF, 6.316547e+06, 0., 0., 0., 0., 0., 1.
*TEMPERATURE
ALLN, 164.994
*NODE FILE
U
*EL FILE
S
*EL PRINT, ELSET=SOLID
S
*END STEP
