*HEADING
R4 dense centrif_only rpm=24000.0 nr=8 nth=16 nz=4
*NODE
1, 52.950000, 0.000000, 0.000000
2, 55.043750, 0.000000, 0.000000
3, 57.137500, 0.000000, 0.000000
4, 59.231250, 0.000000, 0.000000
5, 61.325000, 0.000000, 0.000000
6, 63.418750, 0.000000, 0.000000
7, 65.512500, 0.000000, 0.000000
8, 67.606250, 0.000000, 0.000000
9, 69.700000, 0.000000, 0.000000
10, 52.695031, 5.190008, 0.000000
11, 54.778699, 5.395231, 0.000000
12, 56.862367, 5.600454, 0.000000
13, 58.946035, 5.805678, 0.000000
14, 61.029703, 6.010901, 0.000000
15, 63.113371, 6.216125, 0.000000
16, 65.197039, 6.421348, 0.000000
17, 67.280707, 6.626571, 0.000000
18, 69.364375, 6.831795, 0.000000
19, 51.932581, 10.330033, 0.000000
20, 53.986100, 10.738503, 0.000000
21, 56.039619, 11.146973, 0.000000
22, 58.093138, 11.555444, 0.000000
23, 60.146657, 11.963914, 0.000000
24, 62.200177, 12.372384, 0.000000
25, 64.253696, 12.780855, 0.000000
26, 66.307215, 13.189325, 0.000000
27, 68.360734, 13.597795, 0.000000
28, 50.669991, 15.370574, 0.000000
29, 52.673585, 15.978357, 0.000000
30, 54.677178, 16.586141, 0.000000
31, 56.680772, 17.193924, 0.000000
32, 58.684366, 17.801708, 0.000000
33, 60.687960, 18.409491, 0.000000
34, 62.691554, 19.017275, 0.000000
35, 64.695148, 19.625058, 0.000000
36, 66.698741, 20.232842, 0.000000
37, 48.919421, 20.263088, 0.000000
38, 50.853794, 21.064331, 0.000000
39, 52.788167, 21.865575, 0.000000
40, 54.722540, 22.666818, 0.000000
41, 56.656912, 23.468061, 0.000000
42, 58.591285, 24.269305, 0.000000
43, 60.525658, 25.070548, 0.000000
44, 62.460031, 25.871792, 0.000000
45, 64.394403, 26.673035, 0.000000
46, 46.697731, 24.960457, 0.000000
47, 48.544254, 25.947444, 0.000000
48, 50.390776, 26.934431, 0.000000
49, 52.237299, 27.921418, 0.000000
50, 54.083822, 28.908405, 0.000000
51, 55.930344, 29.895392, 0.000000
52, 57.776867, 30.882379, 0.000000
53, 59.623389, 31.869366, 0.000000
54, 61.469912, 32.856353, 0.000000
55, 44.026316, 29.417444, 0.000000
56, 45.767205, 30.580669, 0.000000
57, 47.508095, 31.743894, 0.000000
58, 49.248984, 32.907119, 0.000000
59, 50.989874, 34.070345, 0.000000
60, 52.730763, 35.233570, 0.000000
61, 54.471653, 36.396795, 0.000000
62, 56.212542, 37.560020, 0.000000
63, 57.953432, 38.723245, 0.000000
64, 40.930904, 33.591124, 0.000000
65, 42.549394, 34.919385, 0.000000
66, 44.167885, 36.247646, 0.000000
67, 45.786375, 37.575907, 0.000000
68, 47.404866, 38.904168, 0.000000
69, 49.023357, 40.232429, 0.000000
70, 50.641847, 41.560690, 0.000000
71, 52.260338, 42.888951, 0.000000
72, 53.878829, 44.217212, 0.000000
73, 37.441304, 37.441304, 0.000000
74, 38.921809, 38.921809, 0.000000
75, 40.402314, 40.402314, 0.000000
76, 41.882819, 41.882819, 0.000000
77, 43.363323, 43.363323, 0.000000
78, 44.843828, 44.843828, 0.000000
79, 46.324333, 46.324333, 0.000000
80, 47.804838, 47.804838, 0.000000
81, 49.285343, 49.285343, 0.000000
82, 33.591124, 40.930904, 0.000000
83, 34.919385, 42.549394, 0.000000
84, 36.247646, 44.167885, 0.000000
85, 37.575907, 45.786375, 0.000000
86, 38.904168, 47.404866, 0.000000
87, 40.232429, 49.023357, 0.000000
88, 41.560690, 50.641847, 0.000000
89, 42.888951, 52.260338, 0.000000
90, 44.217212, 53.878829, 0.000000
91, 29.417444, 44.026316, 0.000000
92, 30.580669, 45.767205, 0.000000
93, 31.743894, 47.508095, 0.000000
94, 32.907119, 49.248984, 0.000000
95, 34.070345, 50.989874, 0.000000
96, 35.233570, 52.730763, 0.000000
97, 36.396795, 54.471653, 0.000000
98, 37.560020, 56.212542, 0.000000
99, 38.723245, 57.953432, 0.000000
100, 24.960457, 46.697731, 0.000000
101, 25.947444, 48.544254, 0.000000
102, 26.934431, 50.390776, 0.000000
103, 27.921418, 52.237299, 0.000000
104, 28.908405, 54.083822, 0.000000
105, 29.895392, 55.930344, 0.000000
106, 30.882379, 57.776867, 0.000000
107, 31.869366, 59.623389, 0.000000
108, 32.856353, 61.469912, 0.000000
109, 20.263088, 48.919421, 0.000000
110, 21.064331, 50.853794, 0.000000
111, 21.865575, 52.788167, 0.000000
112, 22.666818, 54.722540, 0.000000
113, 23.468061, 56.656912, 0.000000
114, 24.269305, 58.591285, 0.000000
115, 25.070548, 60.525658, 0.000000
116, 25.871792, 62.460031, 0.000000
117, 26.673035, 64.394403, 0.000000
118, 15.370574, 50.669991, 0.000000
119, 15.978357, 52.673585, 0.000000
120, 16.586141, 54.677178, 0.000000
121, 17.193924, 56.680772, 0.000000
122, 17.801708, 58.684366, 0.000000
123, 18.409491, 60.687960, 0.000000
124, 19.017275, 62.691554, 0.000000
125, 19.625058, 64.695148, 0.000000
126, 20.232842, 66.698741, 0.000000
127, 10.330033, 51.932581, 0.000000
128, 10.738503, 53.986100, 0.000000
129, 11.146973, 56.039619, 0.000000
130, 11.555444, 58.093138, 0.000000
131, 11.963914, 60.146657, 0.000000
132, 12.372384, 62.200177, 0.000000
133, 12.780855, 64.253696, 0.000000
134, 13.189325, 66.307215, 0.000000
135, 13.597795, 68.360734, 0.000000
136, 5.190008, 52.695031, 0.000000
137, 5.395231, 54.778699, 0.000000
138, 5.600454, 56.862367, 0.000000
139, 5.805678, 58.946035, 0.000000
140, 6.010901, 61.029703, 0.000000
141, 6.216125, 63.113371, 0.000000
142, 6.421348, 65.197039, 0.000000
143, 6.626571, 67.280707, 0.000000
144, 6.831795, 69.364375, 0.000000
145, 0.000000, 52.950000, 0.000000
146, 0.000000, 55.043750, 0.000000
147, 0.000000, 57.137500, 0.000000
148, 0.000000, 59.231250, 0.000000
149, 0.000000, 61.325000, 0.000000
150, 0.000000, 63.418750, 0.000000
151, 0.000000, 65.512500, 0.000000
152, 0.000000, 67.606250, 0.000000
153, 0.000000, 69.700000, 0.000000
154, 52.950000, 0.000000, 16.250000
155, 55.043750, 0.000000, 16.250000
156, 57.137500, 0.000000, 16.250000
157, 59.231250, 0.000000, 16.250000
158, 61.325000, 0.000000, 16.250000
159, 63.418750, 0.000000, 16.250000
160, 65.512500, 0.000000, 16.250000
161, 67.606250, 0.000000, 16.250000
162, 69.700000, 0.000000, 16.250000
163, 52.695031, 5.190008, 16.250000
164, 54.778699, 5.395231, 16.250000
165, 56.862367, 5.600454, 16.250000
166, 58.946035, 5.805678, 16.250000
167, 61.029703, 6.010901, 16.250000
168, 63.113371, 6.216125, 16.250000
169, 65.197039, 6.421348, 16.250000
170, 67.280707, 6.626571, 16.250000
171, 69.364375, 6.831795, 16.250000
172, 51.932581, 10.330033, 16.250000
173, 53.986100, 10.738503, 16.250000
174, 56.039619, 11.146973, 16.250000
175, 58.093138, 11.555444, 16.250000
176, 60.146657, 11.963914, 16.250000
177, 62.200177, 12.372384, 16.250000
178, 64.253696, 12.780855, 16.250000
179, 66.307215, 13.189325, 16.250000
180, 68.360734, 13.597795, 16.250000
181, 50.669991, 15.370574, 16.250000
182, 52.673585, 15.978357, 16.250000
183, 54.677178, 16.586141, 16.250000
184, 56.680772, 17.193924, 16.250000
185, 58.684366, 17.801708, 16.250000
186, 60.687960, 18.409491, 16.250000
187, 62.691554, 19.017275, 16.250000
188, 64.695148, 19.625058, 16.250000
189, 66.698741, 20.232842, 16.250000
190, 48.919421, 20.263088, 16.250000
191, 50.853794, 21.064331, 16.250000
192, 52.788167, 21.865575, 16.250000
193, 54.722540, 22.666818, 16.250000
194, 56.656912, 23.468061, 16.250000
195, 58.591285, 24.269305, 16.250000
196, 60.525658, 25.070548, 16.250000
197, 62.460031, 25.871792, 16.250000
198, 64.394403, 26.673035, 16.250000
199, 46.697731, 24.960457, 16.250000
200, 48.544254, 25.947444, 16.250000
201, 50.390776, 26.934431, 16.250000
202, 52.237299, 27.921418, 16.250000
203, 54.083822, 28.908405, 16.250000
204, 55.930344, 29.895392, 16.250000
205, 57.776867, 30.882379, 16.250000
206, 59.623389, 31.869366, 16.250000
207, 61.469912, 32.856353, 16.250000
208, 44.026316, 29.417444, 16.250000
209, 45.767205, 30.580669, 16.250000
210, 47.508095, 31.743894, 16.250000
211, 49.248984, 32.907119, 16.250000
212, 50.989874, 34.070345, 16.250000
213, 52.730763, 35.233570, 16.250000
214, 54.471653, 36.396795, 16.250000
215, 56.212542, 37.560020, 16.250000
216, 57.953432, 38.723245, 16.250000
217, 40.930904, 33.591124, 16.250000
218, 42.549394, 34.919385, 16.250000
219, 44.167885, 36.247646, 16.250000
220, 45.786375, 37.575907, 16.250000
221, 47.404866, 38.904168, 16.250000
222, 49.023357, 40.232429, 16.250000
223, 50.641847, 41.560690, 16.250000
224, 52.260338, 42.888951, 16.250000
225, 53.878829, 44.217212, 16.250000
226, 37.441304, 37.441304, 16.250000
227, 38.921809, 38.921809, 16.250000
228, 40.402314, 40.402314, 16.250000
229, 41.882819, 41.882819, 16.250000
230, 43.363323, 43.363323, 16.250000
231, 44.843828, 44.843828, 16.250000
232, 46.324333, 46.324333, 16.250000
233, 47.804838, 47.804838, 16.250000
234, 49.285343, 49.285343, 16.250000
235, 33.591124, 40.930904, 16.250000
236, 34.919385, 42.549394, 16.250000
237, 36.247646, 44.167885, 16.250000
238, 37.575907, 45.786375, 16.250000
239, 38.904168, 47.404866, 16.250000
240, 40.232429, 49.023357, 16.250000
241, 41.560690, 50.641847, 16.250000
242, 42.888951, 52.260338, 16.250000
243, 44.217212, 53.878829, 16.250000
244, 29.417444, 44.026316, 16.250000
245, 30.580669, 45.767205, 16.250000
246, 31.743894, 47.508095, 16.250000
247, 32.907119, 49.248984, 16.250000
248, 34.070345, 50.989874, 16.250000
249, 35.233570, 52.730763, 16.250000
250, 36.396795, 54.471653, 16.250000
251, 37.560020, 56.212542, 16.250000
252, 38.723245, 57.953432, 16.250000
253, 24.960457, 46.697731, 16.250000
254, 25.947444, 48.544254, 16.250000
255, 26.934431, 50.390776, 16.250000
256, 27.921418, 52.237299, 16.250000
257, 28.908405, 54.083822, 16.250000
258, 29.895392, 55.930344, 16.250000
259, 30.882379, 57.776867, 16.250000
260, 31.869366, 59.623389, 16.250000
261, 32.856353, 61.469912, 16.250000
262, 20.263088, 48.919421, 16.250000
263, 21.064331, 50.853794, 16.250000
264, 21.865575, 52.788167, 16.250000
265, 22.666818, 54.722540, 16.250000
266, 23.468061, 56.656912, 16.250000
267, 24.269305, 58.591285, 16.250000
268, 25.070548, 60.525658, 16.250000
269, 25.871792, 62.460031, 16.250000
270, 26.673035, 64.394403, 16.250000
271, 15.370574, 50.669991, 16.250000
272, 15.978357, 52.673585, 16.250000
273, 16.586141, 54.677178, 16.250000
274, 17.193924, 56.680772, 16.250000
275, 17.801708, 58.684366, 16.250000
276, 18.409491, 60.687960, 16.250000
277, 19.017275, 62.691554, 16.250000
278, 19.625058, 64.695148, 16.250000
279, 20.232842, 66.698741, 16.250000
280, 10.330033, 51.932581, 16.250000
281, 10.738503, 53.986100, 16.250000
282, 11.146973, 56.039619, 16.250000
283, 11.555444, 58.093138, 16.250000
284, 11.963914, 60.146657, 16.250000
285, 12.372384, 62.200177, 16.250000
286, 12.780855, 64.253696, 16.250000
287, 13.189325, 66.307215, 16.250000
288, 13.597795, 68.360734, 16.250000
289, 5.190008, 52.695031, 16.250000
290, 5.395231, 54.778699, 16.250000
291, 5.600454, 56.862367, 16.250000
292, 5.805678, 58.946035, 16.250000
293, 6.010901, 61.029703, 16.250000
294, 6.216125, 63.113371, 16.250000
295, 6.421348, 65.197039, 16.250000
296, 6.626571, 67.280707, 16.250000
297, 6.831795, 69.364375, 16.250000
298, 0.000000, 52.950000, 16.250000
299, 0.000000, 55.043750, 16.250000
300, 0.000000, 57.137500, 16.250000
301, 0.000000, 59.231250, 16.250000
302, 0.000000, 61.325000, 16.250000
303, 0.000000, 63.418750, 16.250000
304, 0.000000, 65.512500, 16.250000
305, 0.000000, 67.606250, 16.250000
306, 0.000000, 69.700000, 16.250000
307, 52.950000, 0.000000, 32.500000
308, 55.043750, 0.000000, 32.500000
309, 57.137500, 0.000000, 32.500000
310, 59.231250, 0.000000, 32.500000
311, 61.325000, 0.000000, 32.500000
312, 63.418750, 0.000000, 32.500000
313, 65.512500, 0.000000, 32.500000
314, 67.606250, 0.000000, 32.500000
315, 69.700000, 0.000000, 32.500000
316, 52.695031, 5.190008, 32.500000
317, 54.778699, 5.395231, 32.500000
318, 56.862367, 5.600454, 32.500000
319, 58.946035, 5.805678, 32.500000
320, 61.029703, 6.010901, 32.500000
321, 63.113371, 6.216125, 32.500000
322, 65.197039, 6.421348, 32.500000
323, 67.280707, 6.626571, 32.500000
324, 69.364375, 6.831795, 32.500000
325, 51.932581, 10.330033, 32.500000
326, 53.986100, 10.738503, 32.500000
327, 56.039619, 11.146973, 32.500000
328, 58.093138, 11.555444, 32.500000
329, 60.146657, 11.963914, 32.500000
330, 62.200177, 12.372384, 32.500000
331, 64.253696, 12.780855, 32.500000
332, 66.307215, 13.189325, 32.500000
333, 68.360734, 13.597795, 32.500000
334, 50.669991, 15.370574, 32.500000
335, 52.673585, 15.978357, 32.500000
336, 54.677178, 16.586141, 32.500000
337, 56.680772, 17.193924, 32.500000
338, 58.684366, 17.801708, 32.500000
339, 60.687960, 18.409491, 32.500000
340, 62.691554, 19.017275, 32.500000
341, 64.695148, 19.625058, 32.500000
342, 66.698741, 20.232842, 32.500000
343, 48.919421, 20.263088, 32.500000
344, 50.853794, 21.064331, 32.500000
345, 52.788167, 21.865575, 32.500000
346, 54.722540, 22.666818, 32.500000
347, 56.656912, 23.468061, 32.500000
348, 58.591285, 24.269305, 32.500000
349, 60.525658, 25.070548, 32.500000
350, 62.460031, 25.871792, 32.500000
351, 64.394403, 26.673035, 32.500000
352, 46.697731, 24.960457, 32.500000
353, 48.544254, 25.947444, 32.500000
354, 50.390776, 26.934431, 32.500000
355, 52.237299, 27.921418, 32.500000
356, 54.083822, 28.908405, 32.500000
357, 55.930344, 29.895392, 32.500000
358, 57.776867, 30.882379, 32.500000
359, 59.623389, 31.869366, 32.500000
360, 61.469912, 32.856353, 32.500000
361, 44.026316, 29.417444, 32.500000
362, 45.767205, 30.580669, 32.500000
363, 47.508095, 31.743894, 32.500000
364, 49.248984, 32.907119, 32.500000
365, 50.989874, 34.070345, 32.500000
366, 52.730763, 35.233570, 32.500000
367, 54.471653, 36.396795, 32.500000
368, 56.212542, 37.560020, 32.500000
369, 57.953432, 38.723245, 32.500000
370, 40.930904, 33.591124, 32.500000
371, 42.549394, 34.919385, 32.500000
372, 44.167885, 36.247646, 32.500000
373, 45.786375, 37.575907, 32.500000
374, 47.404866, 38.904168, 32.500000
375, 49.023357, 40.232429, 32.500000
376, 50.641847, 41.560690, 32.500000
377, 52.260338, 42.888951, 32.500000
378, 53.878829, 44.217212, 32.500000
379, 37.441304, 37.441304, 32.500000
380, 38.921809, 38.921809, 32.500000
381, 40.402314, 40.402314, 32.500000
382, 41.882819, 41.882819, 32.500000
383, 43.363323, 43.363323, 32.500000
384, 44.843828, 44.843828, 32.500000
385, 46.324333, 46.324333, 32.500000
386, 47.804838, 47.804838, 32.500000
387, 49.285343, 49.285343, 32.500000
388, 33.591124, 40.930904, 32.500000
389, 34.919385, 42.549394, 32.500000
390, 36.247646, 44.167885, 32.500000
391, 37.575907, 45.786375, 32.500000
392, 38.904168, 47.404866, 32.500000
393, 40.232429, 49.023357, 32.500000
394, 41.560690, 50.641847, 32.500000
395, 42.888951, 52.260338, 32.500000
396, 44.217212, 53.878829, 32.500000
397, 29.417444, 44.026316, 32.500000
398, 30.580669, 45.767205, 32.500000
399, 31.743894, 47.508095, 32.500000
400, 32.907119, 49.248984, 32.500000
401, 34.070345, 50.989874, 32.500000
402, 35.233570, 52.730763, 32.500000
403, 36.396795, 54.471653, 32.500000
404, 37.560020, 56.212542, 32.500000
405, 38.723245, 57.953432, 32.500000
406, 24.960457, 46.697731, 32.500000
407, 25.947444, 48.544254, 32.500000
408, 26.934431, 50.390776, 32.500000
409, 27.921418, 52.237299, 32.500000
410, 28.908405, 54.083822, 32.500000
411, 29.895392, 55.930344, 32.500000
412, 30.882379, 57.776867, 32.500000
413, 31.869366, 59.623389, 32.500000
414, 32.856353, 61.469912, 32.500000
415, 20.263088, 48.919421, 32.500000
416, 21.064331, 50.853794, 32.500000
417, 21.865575, 52.788167, 32.500000
418, 22.666818, 54.722540, 32.500000
419, 23.468061, 56.656912, 32.500000
420, 24.269305, 58.591285, 32.500000
421, 25.070548, 60.525658, 32.500000
422, 25.871792, 62.460031, 32.500000
423, 26.673035, 64.394403, 32.500000
424, 15.370574, 50.669991, 32.500000
425, 15.978357, 52.673585, 32.500000
426, 16.586141, 54.677178, 32.500000
427, 17.193924, 56.680772, 32.500000
428, 17.801708, 58.684366, 32.500000
429, 18.409491, 60.687960, 32.500000
430, 19.017275, 62.691554, 32.500000
431, 19.625058, 64.695148, 32.500000
432, 20.232842, 66.698741, 32.500000
433, 10.330033, 51.932581, 32.500000
434, 10.738503, 53.986100, 32.500000
435, 11.146973, 56.039619, 32.500000
436, 11.555444, 58.093138, 32.500000
437, 11.963914, 60.146657, 32.500000
438, 12.372384, 62.200177, 32.500000
439, 12.780855, 64.253696, 32.500000
440, 13.189325, 66.307215, 32.500000
441, 13.597795, 68.360734, 32.500000
442, 5.190008, 52.695031, 32.500000
443, 5.395231, 54.778699, 32.500000
444, 5.600454, 56.862367, 32.500000
445, 5.805678, 58.946035, 32.500000
446, 6.010901, 61.029703, 32.500000
447, 6.216125, 63.113371, 32.500000
448, 6.421348, 65.197039, 32.500000
449, 6.626571, 67.280707, 32.500000
450, 6.831795, 69.364375, 32.500000
451, 0.000000, 52.950000, 32.500000
452, 0.000000, 55.043750, 32.500000
453, 0.000000, 57.137500, 32.500000
454, 0.000000, 59.231250, 32.500000
455, 0.000000, 61.325000, 32.500000
456, 0.000000, 63.418750, 32.500000
457, 0.000000, 65.512500, 32.500000
458, 0.000000, 67.606250, 32.500000
459, 0.000000, 69.700000, 32.500000
460, 52.950000, 0.000000, 48.750000
461, 55.043750, 0.000000, 48.750000
462, 57.137500, 0.000000, 48.750000
463, 59.231250, 0.000000, 48.750000
464, 61.325000, 0.000000, 48.750000
465, 63.418750, 0.000000, 48.750000
466, 65.512500, 0.000000, 48.750000
467, 67.606250, 0.000000, 48.750000
468, 69.700000, 0.000000, 48.750000
469, 52.695031, 5.190008, 48.750000
470, 54.778699, 5.395231, 48.750000
471, 56.862367, 5.600454, 48.750000
472, 58.946035, 5.805678, 48.750000
473, 61.029703, 6.010901, 48.750000
474, 63.113371, 6.216125, 48.750000
475, 65.197039, 6.421348, 48.750000
476, 67.280707, 6.626571, 48.750000
477, 69.364375, 6.831795, 48.750000
478, 51.932581, 10.330033, 48.750000
479, 53.986100, 10.738503, 48.750000
480, 56.039619, 11.146973, 48.750000
481, 58.093138, 11.555444, 48.750000
482, 60.146657, 11.963914, 48.750000
483, 62.200177, 12.372384, 48.750000
484, 64.253696, 12.780855, 48.750000
485, 66.307215, 13.189325, 48.750000
486, 68.360734, 13.597795, 48.750000
487, 50.669991, 15.370574, 48.750000
488, 52.673585, 15.978357, 48.750000
489, 54.677178, 16.586141, 48.750000
490, 56.680772, 17.193924, 48.750000
491, 58.684366, 17.801708, 48.750000
492, 60.687960, 18.409491, 48.750000
493, 62.691554, 19.017275, 48.750000
494, 64.695148, 19.625058, 48.750000
495, 66.698741, 20.232842, 48.750000
496, 48.919421, 20.263088, 48.750000
497, 50.853794, 21.064331, 48.750000
498, 52.788167, 21.865575, 48.750000
499, 54.722540, 22.666818, 48.750000
500, 56.656912, 23.468061, 48.750000
501, 58.591285, 24.269305, 48.750000
502, 60.525658, 25.070548, 48.750000
503, 62.460031, 25.871792, 48.750000
504, 64.394403, 26.673035, 48.750000
505, 46.697731, 24.960457, 48.750000
506, 48.544254, 25.947444, 48.750000
507, 50.390776, 26.934431, 48.750000
508, 52.237299, 27.921418, 48.750000
509, 54.083822, 28.908405, 48.750000
510, 55.930344, 29.895392, 48.750000
511, 57.776867, 30.882379, 48.750000
512, 59.623389, 31.869366, 48.750000
513, 61.469912, 32.856353, 48.750000
514, 44.026316, 29.417444, 48.750000
515, 45.767205, 30.580669, 48.750000
516, 47.508095, 31.743894, 48.750000
517, 49.248984, 32.907119, 48.750000
518, 50.989874, 34.070345, 48.750000
519, 52.730763, 35.233570, 48.750000
520, 54.471653, 36.396795, 48.750000
521, 56.212542, 37.560020, 48.750000
522, 57.953432, 38.723245, 48.750000
523, 40.930904, 33.591124, 48.750000
524, 42.549394, 34.919385, 48.750000
525, 44.167885, 36.247646, 48.750000
526, 45.786375, 37.575907, 48.750000
527, 47.404866, 38.904168, 48.750000
528, 49.023357, 40.232429, 48.750000
529, 50.641847, 41.560690, 48.750000
530, 52.260338, 42.888951, 48.750000
531, 53.878829, 44.217212, 48.750000
532, 37.441304, 37.441304, 48.750000
533, 38.921809, 38.921809, 48.750000
534, 40.402314, 40.402314, 48.750000
535, 41.882819, 41.882819, 48.750000
536, 43.363323, 43.363323, 48.750000
537, 44.843828, 44.843828, 48.750000
538, 46.324333, 46.324333, 48.750000
539, 47.804838, 47.804838, 48.750000
540, 49.285343, 49.285343, 48.750000
541, 33.591124, 40.930904, 48.750000
542, 34.919385, 42.549394, 48.750000
543, 36.247646, 44.167885, 48.750000
544, 37.575907, 45.786375, 48.750000
545, 38.904168, 47.404866, 48.750000
546, 40.232429, 49.023357, 48.750000
547, 41.560690, 50.641847, 48.750000
548, 42.888951, 52.260338, 48.750000
549, 44.217212, 53.878829, 48.750000
550, 29.417444, 44.026316, 48.750000
551, 30.580669, 45.767205, 48.750000
552, 31.743894, 47.508095, 48.750000
553, 32.907119, 49.248984, 48.750000
554, 34.070345, 50.989874, 48.750000
555, 35.233570, 52.730763, 48.750000
556, 36.396795, 54.471653, 48.750000
557, 37.560020, 56.212542, 48.750000
558, 38.723245, 57.953432, 48.750000
559, 24.960457, 46.697731, 48.750000
560, 25.947444, 48.544254, 48.750000
561, 26.934431, 50.390776, 48.750000
562, 27.921418, 52.237299, 48.750000
563, 28.908405, 54.083822, 48.750000
564, 29.895392, 55.930344, 48.750000
565, 30.882379, 57.776867, 48.750000
566, 31.869366, 59.623389, 48.750000
567, 32.856353, 61.469912, 48.750000
568, 20.263088, 48.919421, 48.750000
569, 21.064331, 50.853794, 48.750000
570, 21.865575, 52.788167, 48.750000
571, 22.666818, 54.722540, 48.750000
572, 23.468061, 56.656912, 48.750000
573, 24.269305, 58.591285, 48.750000
574, 25.070548, 60.525658, 48.750000
575, 25.871792, 62.460031, 48.750000
576, 26.673035, 64.394403, 48.750000
577, 15.370574, 50.669991, 48.750000
578, 15.978357, 52.673585, 48.750000
579, 16.586141, 54.677178, 48.750000
580, 17.193924, 56.680772, 48.750000
581, 17.801708, 58.684366, 48.750000
582, 18.409491, 60.687960, 48.750000
583, 19.017275, 62.691554, 48.750000
584, 19.625058, 64.695148, 48.750000
585, 20.232842, 66.698741, 48.750000
586, 10.330033, 51.932581, 48.750000
587, 10.738503, 53.986100, 48.750000
588, 11.146973, 56.039619, 48.750000
589, 11.555444, 58.093138, 48.750000
590, 11.963914, 60.146657, 48.750000
591, 12.372384, 62.200177, 48.750000
592, 12.780855, 64.253696, 48.750000
593, 13.189325, 66.307215, 48.750000
594, 13.597795, 68.360734, 48.750000
595, 5.190008, 52.695031, 48.750000
596, 5.395231, 54.778699, 48.750000
597, 5.600454, 56.862367, 48.750000
598, 5.805678, 58.946035, 48.750000
599, 6.010901, 61.029703, 48.750000
600, 6.216125, 63.113371, 48.750000
601, 6.421348, 65.197039, 48.750000
602, 6.626571, 67.280707, 48.750000
603, 6.831795, 69.364375, 48.750000
604, 0.000000, 52.950000, 48.750000
605, 0.000000, 55.043750, 48.750000
606, 0.000000, 57.137500, 48.750000
607, 0.000000, 59.231250, 48.750000
608, 0.000000, 61.325000, 48.750000
609, 0.000000, 63.418750, 48.750000
610, 0.000000, 65.512500, 48.750000
611, 0.000000, 67.606250, 48.750000
612, 0.000000, 69.700000, 48.750000
613, 52.950000, 0.000000, 65.000000
614, 55.043750, 0.000000, 65.000000
615, 57.137500, 0.000000, 65.000000
616, 59.231250, 0.000000, 65.000000
617, 61.325000, 0.000000, 65.000000
618, 63.418750, 0.000000, 65.000000
619, 65.512500, 0.000000, 65.000000
620, 67.606250, 0.000000, 65.000000
621, 69.700000, 0.000000, 65.000000
622, 52.695031, 5.190008, 65.000000
623, 54.778699, 5.395231, 65.000000
624, 56.862367, 5.600454, 65.000000
625, 58.946035, 5.805678, 65.000000
626, 61.029703, 6.010901, 65.000000
627, 63.113371, 6.216125, 65.000000
628, 65.197039, 6.421348, 65.000000
629, 67.280707, 6.626571, 65.000000
630, 69.364375, 6.831795, 65.000000
631, 51.932581, 10.330033, 65.000000
632, 53.986100, 10.738503, 65.000000
633, 56.039619, 11.146973, 65.000000
634, 58.093138, 11.555444, 65.000000
635, 60.146657, 11.963914, 65.000000
636, 62.200177, 12.372384, 65.000000
637, 64.253696, 12.780855, 65.000000
638, 66.307215, 13.189325, 65.000000
639, 68.360734, 13.597795, 65.000000
640, 50.669991, 15.370574, 65.000000
641, 52.673585, 15.978357, 65.000000
642, 54.677178, 16.586141, 65.000000
643, 56.680772, 17.193924, 65.000000
644, 58.684366, 17.801708, 65.000000
645, 60.687960, 18.409491, 65.000000
646, 62.691554, 19.017275, 65.000000
647, 64.695148, 19.625058, 65.000000
648, 66.698741, 20.232842, 65.000000
649, 48.919421, 20.263088, 65.000000
650, 50.853794, 21.064331, 65.000000
651, 52.788167, 21.865575, 65.000000
652, 54.722540, 22.666818, 65.000000
653, 56.656912, 23.468061, 65.000000
654, 58.591285, 24.269305, 65.000000
655, 60.525658, 25.070548, 65.000000
656, 62.460031, 25.871792, 65.000000
657, 64.394403, 26.673035, 65.000000
658, 46.697731, 24.960457, 65.000000
659, 48.544254, 25.947444, 65.000000
660, 50.390776, 26.934431, 65.000000
661, 52.237299, 27.921418, 65.000000
662, 54.083822, 28.908405, 65.000000
663, 55.930344, 29.895392, 65.000000
664, 57.776867, 30.882379, 65.000000
665, 59.623389, 31.869366, 65.000000
666, 61.469912, 32.856353, 65.000000
667, 44.026316, 29.417444, 65.000000
668, 45.767205, 30.580669, 65.000000
669, 47.508095, 31.743894, 65.000000
670, 49.248984, 32.907119, 65.000000
671, 50.989874, 34.070345, 65.000000
672, 52.730763, 35.233570, 65.000000
673, 54.471653, 36.396795, 65.000000
674, 56.212542, 37.560020, 65.000000
675, 57.953432, 38.723245, 65.000000
676, 40.930904, 33.591124, 65.000000
677, 42.549394, 34.919385, 65.000000
678, 44.167885, 36.247646, 65.000000
679, 45.786375, 37.575907, 65.000000
680, 47.404866, 38.904168, 65.000000
681, 49.023357, 40.232429, 65.000000
682, 50.641847, 41.560690, 65.000000
683, 52.260338, 42.888951, 65.000000
684, 53.878829, 44.217212, 65.000000
685, 37.441304, 37.441304, 65.000000
686, 38.921809, 38.921809, 65.000000
687, 40.402314, 40.402314, 65.000000
688, 41.882819, 41.882819, 65.000000
689, 43.363323, 43.363323, 65.000000
690, 44.843828, 44.843828, 65.000000
691, 46.324333, 46.324333, 65.000000
692, 47.804838, 47.804838, 65.000000
693, 49.285343, 49.285343, 65.000000
694, 33.591124, 40.930904, 65.000000
695, 34.919385, 42.549394, 65.000000
696, 36.247646, 44.167885, 65.000000
697, 37.575907, 45.786375, 65.000000
698, 38.904168, 47.404866, 65.000000
699, 40.232429, 49.023357, 65.000000
700, 41.560690, 50.641847, 65.000000
701, 42.888951, 52.260338, 65.000000
702, 44.217212, 53.878829, 65.000000
703, 29.417444, 44.026316, 65.000000
704, 30.580669, 45.767205, 65.000000
705, 31.743894, 47.508095, 65.000000
706, 32.907119, 49.248984, 65.000000
707, 34.070345, 50.989874, 65.000000
708, 35.233570, 52.730763, 65.000000
709, 36.396795, 54.471653, 65.000000
710, 37.560020, 56.212542, 65.000000
711, 38.723245, 57.953432, 65.000000
712, 24.960457, 46.697731, 65.000000
713, 25.947444, 48.544254, 65.000000
714, 26.934431, 50.390776, 65.000000
715, 27.921418, 52.237299, 65.000000
716, 28.908405, 54.083822, 65.000000
717, 29.895392, 55.930344, 65.000000
718, 30.882379, 57.776867, 65.000000
719, 31.869366, 59.623389, 65.000000
720, 32.856353, 61.469912, 65.000000
721, 20.263088, 48.919421, 65.000000
722, 21.064331, 50.853794, 65.000000
723, 21.865575, 52.788167, 65.000000
724, 22.666818, 54.722540, 65.000000
725, 23.468061, 56.656912, 65.000000
726, 24.269305, 58.591285, 65.000000
727, 25.070548, 60.525658, 65.000000
728, 25.871792, 62.460031, 65.000000
729, 26.673035, 64.394403, 65.000000
730, 15.370574, 50.669991, 65.000000
731, 15.978357, 52.673585, 65.000000
732, 16.586141, 54.677178, 65.000000
733, 17.193924, 56.680772, 65.000000
734, 17.801708, 58.684366, 65.000000
735, 18.409491, 60.687960, 65.000000
736, 19.017275, 62.691554, 65.000000
737, 19.625058, 64.695148, 65.000000
738, 20.232842, 66.698741, 65.000000
739, 10.330033, 51.932581, 65.000000
740, 10.738503, 53.986100, 65.000000
741, 11.146973, 56.039619, 65.000000
742, 11.555444, 58.093138, 65.000000
743, 11.963914, 60.146657, 65.000000
744, 12.372384, 62.200177, 65.000000
745, 12.780855, 64.253696, 65.000000
746, 13.189325, 66.307215, 65.000000
747, 13.597795, 68.360734, 65.000000
748, 5.190008, 52.695031, 65.000000
749, 5.395231, 54.778699, 65.000000
750, 5.600454, 56.862367, 65.000000
751, 5.805678, 58.946035, 65.000000
752, 6.010901, 61.029703, 65.000000
753, 6.216125, 63.113371, 65.000000
754, 6.421348, 65.197039, 65.000000
755, 6.626571, 67.280707, 65.000000
756, 6.831795, 69.364375, 65.000000
757, 0.000000, 52.950000, 65.000000
758, 0.000000, 55.043750, 65.000000
759, 0.000000, 57.137500, 65.000000
760, 0.000000, 59.231250, 65.000000
761, 0.000000, 61.325000, 65.000000
762, 0.000000, 63.418750, 65.000000
763, 0.000000, 65.512500, 65.000000
764, 0.000000, 67.606250, 65.000000
765, 0.000000, 69.700000, 65.000000
*ELEMENT, TYPE=C3D8, ELSET=SOLID
1, 1, 2, 11, 10, 154, 155, 164, 163
2, 2, 3, 12, 11, 155, 156, 165, 164
3, 3, 4, 13, 12, 156, 157, 166, 165
4, 4, 5, 14, 13, 157, 158, 167, 166
5, 5, 6, 15, 14, 158, 159, 168, 167
6, 6, 7, 16, 15, 159, 160, 169, 168
7, 7, 8, 17, 16, 160, 161, 170, 169
8, 8, 9, 18, 17, 161, 162, 171, 170
9, 10, 11, 20, 19, 163, 164, 173, 172
10, 11, 12, 21, 20, 164, 165, 174, 173
11, 12, 13, 22, 21, 165, 166, 175, 174
12, 13, 14, 23, 22, 166, 167, 176, 175
13, 14, 15, 24, 23, 167, 168, 177, 176
14, 15, 16, 25, 24, 168, 169, 178, 177
15, 16, 17, 26, 25, 169, 170, 179, 178
16, 17, 18, 27, 26, 170, 171, 180, 179
17, 19, 20, 29, 28, 172, 173, 182, 181
18, 20, 21, 30, 29, 173, 174, 183, 182
19, 21, 22, 31, 30, 174, 175, 184, 183
20, 22, 23, 32, 31, 175, 176, 185, 184
21, 23, 24, 33, 32, 176, 177, 186, 185
22, 24, 25, 34, 33, 177, 178, 187, 186
23, 25, 26, 35, 34, 178, 179, 188, 187
24, 26, 27, 36, 35, 179, 180, 189, 188
25, 28, 29, 38, 37, 181, 182, 191, 190
26, 29, 30, 39, 38, 182, 183, 192, 191
27, 30, 31, 40, 39, 183, 184, 193, 192
28, 31, 32, 41, 40, 184, 185, 194, 193
29, 32, 33, 42, 41, 185, 186, 195, 194
30, 33, 34, 43, 42, 186, 187, 196, 195
31, 34, 35, 44, 43, 187, 188, 197, 196
32, 35, 36, 45, 44, 188, 189, 198, 197
33, 37, 38, 47, 46, 190, 191, 200, 199
34, 38, 39, 48, 47, 191, 192, 201, 200
35, 39, 40, 49, 48, 192, 193, 202, 201
36, 40, 41, 50, 49, 193, 194, 203, 202
37, 41, 42, 51, 50, 194, 195, 204, 203
38, 42, 43, 52, 51, 195, 196, 205, 204
39, 43, 44, 53, 52, 196, 197, 206, 205
40, 44, 45, 54, 53, 197, 198, 207, 206
41, 46, 47, 56, 55, 199, 200, 209, 208
42, 47, 48, 57, 56, 200, 201, 210, 209
43, 48, 49, 58, 57, 201, 202, 211, 210
44, 49, 50, 59, 58, 202, 203, 212, 211
45, 50, 51, 60, 59, 203, 204, 213, 212
46, 51, 52, 61, 60, 204, 205, 214, 213
47, 52, 53, 62, 61, 205, 206, 215, 214
48, 53, 54, 63, 62, 206, 207, 216, 215
49, 55, 56, 65, 64, 208, 209, 218, 217
50, 56, 57, 66, 65, 209, 210, 219, 218
51, 57, 58, 67, 66, 210, 211, 220, 219
52, 58, 59, 68, 67, 211, 212, 221, 220
53, 59, 60, 69, 68, 212, 213, 222, 221
54, 60, 61, 70, 69, 213, 214, 223, 222
55, 61, 62, 71, 70, 214, 215, 224, 223
56, 62, 63, 72, 71, 215, 216, 225, 224
57, 64, 65, 74, 73, 217, 218, 227, 226
58, 65, 66, 75, 74, 218, 219, 228, 227
59, 66, 67, 76, 75, 219, 220, 229, 228
60, 67, 68, 77, 76, 220, 221, 230, 229
61, 68, 69, 78, 77, 221, 222, 231, 230
62, 69, 70, 79, 78, 222, 223, 232, 231
63, 70, 71, 80, 79, 223, 224, 233, 232
64, 71, 72, 81, 80, 224, 225, 234, 233
65, 73, 74, 83, 82, 226, 227, 236, 235
66, 74, 75, 84, 83, 227, 228, 237, 236
67, 75, 76, 85, 84, 228, 229, 238, 237
68, 76, 77, 86, 85, 229, 230, 239, 238
69, 77, 78, 87, 86, 230, 231, 240, 239
70, 78, 79, 88, 87, 231, 232, 241, 240
71, 79, 80, 89, 88, 232, 233, 242, 241
72, 80, 81, 90, 89, 233, 234, 243, 242
73, 82, 83, 92, 91, 235, 236, 245, 244
74, 83, 84, 93, 92, 236, 237, 246, 245
75, 84, 85, 94, 93, 237, 238, 247, 246
76, 85, 86, 95, 94, 238, 239, 248, 247
77, 86, 87, 96, 95, 239, 240, 249, 248
78, 87, 88, 97, 96, 240, 241, 250, 249
79, 88, 89, 98, 97, 241, 242, 251, 250
80, 89, 90, 99, 98, 242, 243, 252, 251
81, 91, 92, 101, 100, 244, 245, 254, 253
82, 92, 93, 102, 101, 245, 246, 255, 254
83, 93, 94, 103, 102, 246, 247, 256, 255
84, 94, 95, 104, 103, 247, 248, 257, 256
85, 95, 96, 105, 104, 248, 249, 258, 257
86, 96, 97, 106, 105, 249, 250, 259, 258
87, 97, 98, 107, 106, 250, 251, 260, 259
88, 98, 99, 108, 107, 251, 252, 261, 260
89, 100, 101, 110, 109, 253, 254, 263, 262
90, 101, 102, 111, 110, 254, 255, 264, 263
91, 102, 103, 112, 111, 255, 256, 265, 264
92, 103, 104, 113, 112, 256, 257, 266, 265
93, 104, 105, 114, 113, 257, 258, 267, 266
94, 105, 106, 115, 114, 258, 259, 268, 267
95, 106, 107, 116, 115, 259, 260, 269, 268
96, 107, 108, 117, 116, 260, 261, 270, 269
97, 109, 110, 119, 118, 262, 263, 272, 271
98, 110, 111, 120, 119, 263, 264, 273, 272
99, 111, 112, 121, 120, 264, 265, 274, 273
100, 112, 113, 122, 121, 265, 266, 275, 274
101, 113, 114, 123, 122, 266, 267, 276, 275
102, 114, 115, 124, 123, 267, 268, 277, 276
103, 115, 116, 125, 124, 268, 269, 278, 277
104, 116, 117, 126, 125, 269, 270, 279, 278
105, 118, 119, 128, 127, 271, 272, 281, 280
106, 119, 120, 129, 128, 272, 273, 282, 281
107, 120, 121, 130, 129, 273, 274, 283, 282
108, 121, 122, 131, 130, 274, 275, 284, 283
109, 122, 123, 132, 131, 275, 276, 285, 284
110, 123, 124, 133, 132, 276, 277, 286, 285
111, 124, 125, 134, 133, 277, 278, 287, 286
112, 125, 126, 135, 134, 278, 279, 288, 287
113, 127, 128, 137, 136, 280, 281, 290, 289
114, 128, 129, 138, 137, 281, 282, 291, 290
115, 129, 130, 139, 138, 282, 283, 292, 291
116, 130, 131, 140, 139, 283, 284, 293, 292
117, 131, 132, 141, 140, 284, 285, 294, 293
118, 132, 133, 142, 141, 285, 286, 295, 294
119, 133, 134, 143, 142, 286, 287, 296, 295
120, 134, 135, 144, 143, 287, 288, 297, 296
121, 136, 137, 146, 145, 289, 290, 299, 298
122, 137, 138, 147, 146, 290, 291, 300, 299
123, 138, 139, 148, 147, 291, 292, 301, 300
124, 139, 140, 149, 148, 292, 293, 302, 301
125, 140, 141, 150, 149, 293, 294, 303, 302
126, 141, 142, 151, 150, 294, 295, 304, 303
127, 142, 143, 152, 151, 295, 296, 305, 304
128, 143, 144, 153, 152, 296, 297, 306, 305
129, 154, 155, 164, 163, 307, 308, 317, 316
130, 155, 156, 165, 164, 308, 309, 318, 317
131, 156, 157, 166, 165, 309, 310, 319, 318
132, 157, 158, 167, 166, 310, 311, 320, 319
133, 158, 159, 168, 167, 311, 312, 321, 320
134, 159, 160, 169, 168, 312, 313, 322, 321
135, 160, 161, 170, 169, 313, 314, 323, 322
136, 161, 162, 171, 170, 314, 315, 324, 323
137, 163, 164, 173, 172, 316, 317, 326, 325
138, 164, 165, 174, 173, 317, 318, 327, 326
139, 165, 166, 175, 174, 318, 319, 328, 327
140, 166, 167, 176, 175, 319, 320, 329, 328
141, 167, 168, 177, 176, 320, 321, 330, 329
142, 168, 169, 178, 177, 321, 322, 331, 330
143, 169, 170, 179, 178, 322, 323, 332, 331
144, 170, 171, 180, 179, 323, 324, 333, 332
145, 172, 173, 182, 181, 325, 326, 335, 334
146, 173, 174, 183, 182, 326, 327, 336, 335
147, 174, 175, 184, 183, 327, 328, 337, 336
148, 175, 176, 185, 184, 328, 329, 338, 337
149, 176, 177, 186, 185, 329, 330, 339, 338
150, 177, 178, 187, 186, 330, 331, 340, 339
151, 178, 179, 188, 187, 331, 332, 341, 340
152, 179, 180, 189, 188, 332, 333, 342, 341
153, 181, 182, 191, 190, 334, 335, 344, 343
154, 182, 183, 192, 191, 335, 336, 345, 344
155, 183, 184, 193, 192, 336, 337, 346, 345
156, 184, 185, 194, 193, 337, 338, 347, 346
157, 185, 186, 195, 194, 338, 339, 348, 347
158, 186, 187, 196, 195, 339, 340, 349, 348
159, 187, 188, 197, 196, 340, 341, 350, 349
160, 188, 189, 198, 197, 341, 342, 351, 350
161, 190, 191, 200, 199, 343, 344, 353, 352
162, 191, 192, 201, 200, 344, 345, 354, 353
163, 192, 193, 202, 201, 345, 346, 355, 354
164, 193, 194, 203, 202, 346, 347, 356, 355
165, 194, 195, 204, 203, 347, 348, 357, 356
166, 195, 196, 205, 204, 348, 349, 358, 357
167, 196, 197, 206, 205, 349, 350, 359, 358
168, 197, 198, 207, 206, 350, 351, 360, 359
169, 199, 200, 209, 208, 352, 353, 362, 361
170, 200, 201, 210, 209, 353, 354, 363, 362
171, 201, 202, 211, 210, 354, 355, 364, 363
172, 202, 203, 212, 211, 355, 356, 365, 364
173, 203, 204, 213, 212, 356, 357, 366, 365
174, 204, 205, 214, 213, 357, 358, 367, 366
175, 205, 206, 215, 214, 358, 359, 368, 367
176, 206, 207, 216, 215, 359, 360, 369, 368
177, 208, 209, 218, 217, 361, 362, 371, 370
178, 209, 210, 219, 218, 362, 363, 372, 371
179, 210, 211, 220, 219, 363, 364, 373, 372
180, 211, 212, 221, 220, 364, 365, 374, 373
181, 212, 213, 222, 221, 365, 366, 375, 374
182, 213, 214, 223, 222, 366, 367, 376, 375
183, 214, 215, 224, 223, 367, 368, 377, 376
184, 215, 216, 225, 224, 368, 369, 378, 377
185, 217, 218, 227, 226, 370, 371, 380, 379
186, 218, 219, 228, 227, 371, 372, 381, 380
187, 219, 220, 229, 228, 372, 373, 382, 381
188, 220, 221, 230, 229, 373, 374, 383, 382
189, 221, 222, 231, 230, 374, 375, 384, 383
190, 222, 223, 232, 231, 375, 376, 385, 384
191, 223, 224, 233, 232, 376, 377, 386, 385
192, 224, 225, 234, 233, 377, 378, 387, 386
193, 226, 227, 236, 235, 379, 380, 389, 388
194, 227, 228, 237, 236, 380, 381, 390, 389
195, 228, 229, 238, 237, 381, 382, 391, 390
196, 229, 230, 239, 238, 382, 383, 392, 391
197, 230, 231, 240, 239, 383, 384, 393, 392
198, 231, 232, 241, 240, 384, 385, 394, 393
199, 232, 233, 242, 241, 385, 386, 395, 394
200, 233, 234, 243, 242, 386, 387, 396, 395
201, 235, 236, 245, 244, 388, 389, 398, 397
202, 236, 237, 246, 245, 389, 390, 399, 398
203, 237, 238, 247, 246, 390, 391, 400, 399
204, 238, 239, 248, 247, 391, 392, 401, 400
205, 239, 240, 249, 248, 392, 393, 402, 401
206, 240, 241, 250, 249, 393, 394, 403, 402
207, 241, 242, 251, 250, 394, 395, 404, 403
208, 242, 243, 252, 251, 395, 396, 405, 404
209, 244, 245, 254, 253, 397, 398, 407, 406
210, 245, 246, 255, 254, 398, 399, 408, 407
211, 246, 247, 256, 255, 399, 400, 409, 408
212, 247, 248, 257, 256, 400, 401, 410, 409
213, 248, 249, 258, 257, 401, 402, 411, 410
214, 249, 250, 259, 258, 402, 403, 412, 411
215, 250, 251, 260, 259, 403, 404, 413, 412
216, 251, 252, 261, 260, 404, 405, 414, 413
217, 253, 254, 263, 262, 406, 407, 416, 415
218, 254, 255, 264, 263, 407, 408, 417, 416
219, 255, 256, 265, 264, 408, 409, 418, 417
220, 256, 257, 266, 265, 409, 410, 419, 418
221, 257, 258, 267, 266, 410, 411, 420, 419
222, 258, 259, 268, 267, 411, 412, 421, 420
223, 259, 260, 269, 268, 412, 413, 422, 421
224, 260, 261, 270, 269, 413, 414, 423, 422
225, 262, 263, 272, 271, 415, 416, 425, 424
226, 263, 264, 273, 272, 416, 417, 426, 425
227, 264, 265, 274, 273, 417, 418, 427, 426
228, 265, 266, 275, 274, 418, 419, 428, 427
229, 266, 267, 276, 275, 419, 420, 429, 428
230, 267, 268, 277, 276, 420, 421, 430, 429
231, 268, 269, 278, 277, 421, 422, 431, 430
232, 269, 270, 279, 278, 422, 423, 432, 431
233, 271, 272, 281, 280, 424, 425, 434, 433
234, 272, 273, 282, 281, 425, 426, 435, 434
235, 273, 274, 283, 282, 426, 427, 436, 435
236, 274, 275, 284, 283, 427, 428, 437, 436
237, 275, 276, 285, 284, 428, 429, 438, 437
238, 276, 277, 286, 285, 429, 430, 439, 438
239, 277, 278, 287, 286, 430, 431, 440, 439
240, 278, 279, 288, 287, 431, 432, 441, 440
241, 280, 281, 290, 289, 433, 434, 443, 442
242, 281, 282, 291, 290, 434, 435, 444, 443
243, 282, 283, 292, 291, 435, 436, 445, 444
244, 283, 284, 293, 292, 436, 437, 446, 445
245, 284, 285, 294, 293, 437, 438, 447, 446
246, 285, 286, 295, 294, 438, 439, 448, 447
247, 286, 287, 296, 295, 439, 440, 449, 448
248, 287, 288, 297, 296, 440, 441, 450, 449
249, 289, 290, 299, 298, 442, 443, 452, 451
250, 290, 291, 300, 299, 443, 444, 453, 452
251, 291, 292, 301, 300, 444, 445, 454, 453
252, 292, 293, 302, 301, 445, 446, 455, 454
253, 293, 294, 303, 302, 446, 447, 456, 455
254, 294, 295, 304, 303, 447, 448, 457, 456
255, 295, 296, 305, 304, 448, 449, 458, 457
256, 296, 297, 306, 305, 449, 450, 459, 458
257, 307, 308, 317, 316, 460, 461, 470, 469
258, 308, 309, 318, 317, 461, 462, 471, 470
259, 309, 310, 319, 318, 462, 463, 472, 471
260, 310, 311, 320, 319, 463, 464, 473, 472
261, 311, 312, 321, 320, 464, 465, 474, 473
262, 312, 313, 322, 321, 465, 466, 475, 474
263, 313, 314, 323, 322, 466, 467, 476, 475
264, 314, 315, 324, 323, 467, 468, 477, 476
265, 316, 317, 326, 325, 469, 470, 479, 478
266, 317, 318, 327, 326, 470, 471, 480, 479
267, 318, 319, 328, 327, 471, 472, 481, 480
268, 319, 320, 329, 328, 472, 473, 482, 481
269, 320, 321, 330, 329, 473, 474, 483, 482
270, 321, 322, 331, 330, 474, 475, 484, 483
271, 322, 323, 332, 331, 475, 476, 485, 484
272, 323, 324, 333, 332, 476, 477, 486, 485
273, 325, 326, 335, 334, 478, 479, 488, 487
274, 326, 327, 336, 335, 479, 480, 489, 488
275, 327, 328, 337, 336, 480, 481, 490, 489
276, 328, 329, 338, 337, 481, 482, 491, 490
277, 329, 330, 339, 338, 482, 483, 492, 491
278, 330, 331, 340, 339, 483, 484, 493, 492
279, 331, 332, 341, 340, 484, 485, 494, 493
280, 332, 333, 342, 341, 485, 486, 495, 494
281, 334, 335, 344, 343, 487, 488, 497, 496
282, 335, 336, 345, 344, 488, 489, 498, 497
283, 336, 337, 346, 345, 489, 490, 499, 498
284, 337, 338, 347, 346, 490, 491, 500, 499
285, 338, 339, 348, 347, 491, 492, 501, 500
286, 339, 340, 349, 348, 492, 493, 502, 501
287, 340, 341, 350, 349, 493, 494, 503, 502
288, 341, 342, 351, 350, 494, 495, 504, 503
289, 343, 344, 353, 352, 496, 497, 506, 505
290, 344, 345, 354, 353, 497, 498, 507, 506
291, 345, 346, 355, 354, 498, 499, 508, 507
292, 346, 347, 356, 355, 499, 500, 509, 508
293, 347, 348, 357, 356, 500, 501, 510, 509
294, 348, 349, 358, 357, 501, 502, 511, 510
295, 349, 350, 359, 358, 502, 503, 512, 511
296, 350, 351, 360, 359, 503, 504, 513, 512
297, 352, 353, 362, 361, 505, 506, 515, 514
298, 353, 354, 363, 362, 506, 507, 516, 515
299, 354, 355, 364, 363, 507, 508, 517, 516
300, 355, 356, 365, 364, 508, 509, 518, 517
301, 356, 357, 366, 365, 509, 510, 519, 518
302, 357, 358, 367, 366, 510, 511, 520, 519
303, 358, 359, 368, 367, 511, 512, 521, 520
304, 359, 360, 369, 368, 512, 513, 522, 521
305, 361, 362, 371, 370, 514, 515, 524, 523
306, 362, 363, 372, 371, 515, 516, 525, 524
307, 363, 364, 373, 372, 516, 517, 526, 525
308, 364, 365, 374, 373, 517, 518, 527, 526
309, 365, 366, 375, 374, 518, 519, 528, 527
310, 366, 367, 376, 375, 519, 520, 529, 528
311, 367, 368, 377, 376, 520, 521, 530, 529
312, 368, 369, 378, 377, 521, 522, 531, 530
313, 370, 371, 380, 379, 523, 524, 533, 532
314, 371, 372, 381, 380, 524, 525, 534, 533
315, 372, 373, 382, 381, 525, 526, 535, 534
316, 373, 374, 383, 382, 526, 527, 536, 535
317, 374, 375, 384, 383, 527, 528, 537, 536
318, 375, 376, 385, 384, 528, 529, 538, 537
319, 376, 377, 386, 385, 529, 530, 539, 538
320, 377, 378, 387, 386, 530, 531, 540, 539
321, 379, 380, 389, 388, 532, 533, 542, 541
322, 380, 381, 390, 389, 533, 534, 543, 542
323, 381, 382, 391, 390, 534, 535, 544, 543
324, 382, 383, 392, 391, 535, 536, 545, 544
325, 383, 384, 393, 392, 536, 537, 546, 545
326, 384, 385, 394, 393, 537, 538, 547, 546
327, 385, 386, 395, 394, 538, 539, 548, 547
328, 386, 387, 396, 395, 539, 540, 549, 548
329, 388, 389, 398, 397, 541, 542, 551, 550
330, 389, 390, 399, 398, 542, 543, 552, 551
331, 390, 391, 400, 399, 543, 544, 553, 552
332, 391, 392, 401, 400, 544, 545, 554, 553
333, 392, 393, 402, 401, 545, 546, 555, 554
334, 393, 394, 403, 402, 546, 547, 556, 555
335, 394, 395, 404, 403, 547, 548, 557, 556
336, 395, 396, 405, 404, 548, 549, 558, 557
337, 397, 398, 407, 406, 550, 551, 560, 559
338, 398, 399, 408, 407, 551, 552, 561, 560
339, 399, 400, 409, 408, 552, 553, 562, 561
340, 400, 401, 410, 409, 553, 554, 563, 562
341, 401, 402, 411, 410, 554, 555, 564, 563
342, 402, 403, 412, 411, 555, 556, 565, 564
343, 403, 404, 413, 412, 556, 557, 566, 565
344, 404, 405, 414, 413, 557, 558, 567, 566
345, 406, 407, 416, 415, 559, 560, 569, 568
346, 407, 408, 417, 416, 560, 561, 570, 569
347, 408, 409, 418, 417, 561, 562, 571, 570
348, 409, 410, 419, 418, 562, 563, 572, 571
349, 410, 411, 420, 419, 563, 564, 573, 572
350, 411, 412, 421, 420, 564, 565, 574, 573
351, 412, 413, 422, 421, 565, 566, 575, 574
352, 413, 414, 423, 422, 566, 567, 576, 575
353, 415, 416, 425, 424, 568, 569, 578, 577
354, 416, 417, 426, 425, 569, 570, 579, 578
355, 417, 418, 427, 426, 570, 571, 580, 579
356, 418, 419, 428, 427, 571, 572, 581, 580
357, 419, 420, 429, 428, 572, 573, 582, 581
358, 420, 421, 430, 429, 573, 574, 583, 582
359, 421, 422, 431, 430, 574, 575, 584, 583
360, 422, 423, 432, 431, 575, 576, 585, 584
361, 424, 425, 434, 433, 577, 578, 587, 586
362, 425, 426, 435, 434, 578, 579, 588, 587
363, 426, 427, 436, 435, 579, 580, 589, 588
364, 427, 428, 437, 436, 580, 581, 590, 589
365, 428, 429, 438, 437, 581, 582, 591, 590
366, 429, 430, 439, 438, 582, 583, 592, 591
367, 430, 431, 440, 439, 583, 584, 593, 592
368, 431, 432, 441, 440, 584, 585, 594, 593
369, 433, 434, 443, 442, 586, 587, 596, 595
370, 434, 435, 444, 443, 587, 588, 597, 596
371, 435, 436, 445, 444, 588, 589, 598, 597
372, 436, 437, 446, 445, 589, 590, 599, 598
373, 437, 438, 447, 446, 590, 591, 600, 599
374, 438, 439, 448, 447, 591, 592, 601, 600
375, 439, 440, 449, 448, 592, 593, 602, 601
376, 440, 441, 450, 449, 593, 594, 603, 602
377, 442, 443, 452, 451, 595, 596, 605, 604
378, 443, 444, 453, 452, 596, 597, 606, 605
379, 444, 445, 454, 453, 597, 598, 607, 606
380, 445, 446, 455, 454, 598, 599, 608, 607
381, 446, 447, 456, 455, 599, 600, 609, 608
382, 447, 448, 457, 456, 600, 601, 610, 609
383, 448, 449, 458, 457, 601, 602, 611, 610
384, 449, 450, 459, 458, 602, 603, 612, 611
385, 460, 461, 470, 469, 613, 614, 623, 622
386, 461, 462, 471, 470, 614, 615, 624, 623
387, 462, 463, 472, 471, 615, 616, 625, 624
388, 463, 464, 473, 472, 616, 617, 626, 625
389, 464, 465, 474, 473, 617, 618, 627, 626
390, 465, 466, 475, 474, 618, 619, 628, 627
391, 466, 467, 476, 475, 619, 620, 629, 628
392, 467, 468, 477, 476, 620, 621, 630, 629
393, 469, 470, 479, 478, 622, 623, 632, 631
394, 470, 471, 480, 479, 623, 624, 633, 632
395, 471, 472, 481, 480, 624, 625, 634, 633
396, 472, 473, 482, 481, 625, 626, 635, 634
397, 473, 474, 483, 482, 626, 627, 636, 635
398, 474, 475, 484, 483, 627, 628, 637, 636
399, 475, 476, 485, 484, 628, 629, 638, 637
400, 476, 477, 486, 485, 629, 630, 639, 638
401, 478, 479, 488, 487, 631, 632, 641, 640
402, 479, 480, 489, 488, 632, 633, 642, 641
403, 480, 481, 490, 489, 633, 634, 643, 642
404, 481, 482, 491, 490, 634, 635, 644, 643
405, 482, 483, 492, 491, 635, 636, 645, 644
406, 483, 484, 493, 492, 636, 637, 646, 645
407, 484, 485, 494, 493, 637, 638, 647, 646
408, 485, 486, 495, 494, 638, 639, 648, 647
409, 487, 488, 497, 496, 640, 641, 650, 649
410, 488, 489, 498, 497, 641, 642, 651, 650
411, 489, 490, 499, 498, 642, 643, 652, 651
412, 490, 491, 500, 499, 643, 644, 653, 652
413, 491, 492, 501, 500, 644, 645, 654, 653
414, 492, 493, 502, 501, 645, 646, 655, 654
415, 493, 494, 503, 502, 646, 647, 656, 655
416, 494, 495, 504, 503, 647, 648, 657, 656
417, 496, 497, 506, 505, 649, 650, 659, 658
418, 497, 498, 507, 506, 650, 651, 660, 659
419, 498, 499, 508, 507, 651, 652, 661, 660
420, 499, 500, 509, 508, 652, 653, 662, 661
421, 500, 501, 510, 509, 653, 654, 663, 662
422, 501, 502, 511, 510, 654, 655, 664, 663
423, 502, 503, 512, 511, 655, 656, 665, 664
424, 503, 504, 513, 512, 656, 657, 666, 665
425, 505, 506, 515, 514, 658, 659, 668, 667
426, 506, 507, 516, 515, 659, 660, 669, 668
427, 507, 508, 517, 516, 660, 661, 670, 669
428, 508, 509, 518, 517, 661, 662, 671, 670
429, 509, 510, 519, 518, 662, 663, 672, 671
430, 510, 511, 520, 519, 663, 664, 673, 672
431, 511, 512, 521, 520, 664, 665, 674, 673
432, 512, 513, 522, 521, 665, 666, 675, 674
433, 514, 515, 524, 523, 667, 668, 677, 676
434, 515, 516, 525, 524, 668, 669, 678, 677
435, 516, 517, 526, 525, 669, 670, 679, 678
436, 517, 518, 527, 526, 670, 671, 680, 679
437, 518, 519, 528, 527, 671, 672, 681, 680
438, 519, 520, 529, 528, 672, 673, 682, 681
439, 520, 521, 530, 529, 673, 674, 683, 682
440, 521, 522, 531, 530, 674, 675, 684, 683
441, 523, 524, 533, 532, 676, 677, 686, 685
442, 524, 525, 534, 533, 677, 678, 687, 686
443, 525, 526, 535, 534, 678, 679, 688, 687
444, 526, 527, 536, 535, 679, 680, 689, 688
445, 527, 528, 537, 536, 680, 681, 690, 689
446, 528, 529, 538, 537, 681, 682, 691, 690
447, 529, 530, 539, 538, 682, 683, 692, 691
448, 530, 531, 540, 539, 683, 684, 693, 692
449, 532, 533, 542, 541, 685, 686, 695, 694
450, 533, 534, 543, 542, 686, 687, 696, 695
451, 534, 535, 544, 543, 687, 688, 697, 696
452, 535, 536, 545, 544, 688, 689, 698, 697
453, 536, 537, 546, 545, 689, 690, 699, 698
454, 537, 538, 547, 546, 690, 691, 700, 699
455, 538, 539, 548, 547, 691, 692, 701, 700
456, 539, 540, 549, 548, 692, 693, 702, 701
457, 541, 542, 551, 550, 694, 695, 704, 703
458, 542, 543, 552, 551, 695, 696, 705, 704
459, 543, 544, 553, 552, 696, 697, 706, 705
460, 544, 545, 554, 553, 697, 698, 707, 706
461, 545, 546, 555, 554, 698, 699, 708, 707
462, 546, 547, 556, 555, 699, 700, 709, 708
463, 547, 548, 557, 556, 700, 701, 710, 709
464, 548, 549, 558, 557, 701, 702, 711, 710
465, 550, 551, 560, 559, 703, 704, 713, 712
466, 551, 552, 561, 560, 704, 705, 714, 713
467, 552, 553, 562, 561, 705, 706, 715, 714
468, 553, 554, 563, 562, 706, 707, 716, 715
469, 554, 555, 564, 563, 707, 708, 717, 716
470, 555, 556, 565, 564, 708, 709, 718, 717
471, 556, 557, 566, 565, 709, 710, 719, 718
472, 557, 558, 567, 566, 710, 711, 720, 719
473, 559, 560, 569, 568, 712, 713, 722, 721
474, 560, 561, 570, 569, 713, 714, 723, 722
475, 561, 562, 571, 570, 714, 715, 724, 723
476, 562, 563, 572, 571, 715, 716, 725, 724
477, 563, 564, 573, 572, 716, 717, 726, 725
478, 564, 565, 574, 573, 717, 718, 727, 726
479, 565, 566, 575, 574, 718, 719, 728, 727
480, 566, 567, 576, 575, 719, 720, 729, 728
481, 568, 569, 578, 577, 721, 722, 731, 730
482, 569, 570, 579, 578, 722, 723, 732, 731
483, 570, 571, 580, 579, 723, 724, 733, 732
484, 571, 572, 581, 580, 724, 725, 734, 733
485, 572, 573, 582, 581, 725, 726, 735, 734
486, 573, 574, 583, 582, 726, 727, 736, 735
487, 574, 575, 584, 583, 727, 728, 737, 736
488, 575, 576, 585, 584, 728, 729, 738, 737
489, 577, 578, 587, 586, 730, 731, 740, 739
490, 578, 579, 588, 587, 731, 732, 741, 740
491, 579, 580, 589, 588, 732, 733, 742, 741
492, 580, 581, 590, 589, 733, 734, 743, 742
493, 581, 582, 591, 590, 734, 735, 744, 743
494, 582, 583, 592, 591, 735, 736, 745, 744
495, 583, 584, 593, 592, 736, 737, 746, 745
496, 584, 585, 594, 593, 737, 738, 747, 746
497, 586, 587, 596, 595, 739, 740, 749, 748
498, 587, 588, 597, 596, 740, 741, 750, 749
499, 588, 589, 598, 597, 741, 742, 751, 750
500, 589, 590, 599, 598, 742, 743, 752, 751
501, 590, 591, 600, 599, 743, 744, 753, 752
502, 591, 592, 601, 600, 744, 745, 754, 753
503, 592, 593, 602, 601, 745, 746, 755, 754
504, 593, 594, 603, 602, 746, 747, 756, 755
505, 595, 596, 605, 604, 748, 749, 758, 757
506, 596, 597, 606, 605, 749, 750, 759, 758
507, 597, 598, 607, 606, 750, 751, 760, 759
508, 598, 599, 608, 607, 751, 752, 761, 760
509, 599, 600, 609, 608, 752, 753, 762, 761
510, 600, 601, 610, 609, 753, 754, 763, 762
511, 601, 602, 611, 610, 754, 755, 764, 763
512, 602, 603, 612, 611, 755, 756, 765, 764
*NSET, NSET=SYM0
1, 154, 307, 460, 613, 2, 155, 308, 461, 614, 3, 156, 309, 462, 615, 4
157, 310, 463, 616, 5, 158, 311, 464, 617, 6, 159, 312, 465, 618, 7, 160
313, 466, 619, 8, 161, 314, 467, 620, 9, 162, 315, 468, 621
*NSET, NSET=SYM90
145, 298, 451, 604, 757, 146, 299, 452, 605, 758, 147, 300, 453, 606, 759, 148
301, 454, 607, 760, 149, 302, 455, 608, 761, 150, 303, 456, 609, 762, 151, 304
457, 610, 763, 152, 305, 458, 611, 764, 153, 306, 459, 612, 765
*NSET, NSET=FIXZ
1, 10, 19, 28, 37, 46, 55, 64, 73, 82, 91, 100, 109, 118, 127, 136
145, 2, 11, 20, 29, 38, 47, 56, 65, 74, 83, 92, 101, 110, 119, 128
137, 146, 3, 12, 21, 30, 39, 48, 57, 66, 75, 84, 93, 102, 111, 120
129, 138, 147, 4, 13, 22, 31, 40, 49, 58, 67, 76, 85, 94, 103, 112
121, 130, 139, 148, 5, 14, 23, 32, 41, 50, 59, 68, 77, 86, 95, 104
113, 122, 131, 140, 149, 6, 15, 24, 33, 42, 51, 60, 69, 78, 87, 96
105, 114, 123, 132, 141, 150, 7, 16, 25, 34, 43, 52, 61, 70, 79, 88
97, 106, 115, 124, 133, 142, 151, 8, 17, 26, 35, 44, 53, 62, 71, 80
89, 98, 107, 116, 125, 134, 143, 152, 9, 18, 27, 36, 45, 54, 63, 72
81, 90, 99, 108, 117, 126, 135, 144, 153
*NSET, NSET=ALLN
1, 2, 3, 4, 5, 6, 7, 8, 9, 10, 11, 12, 13, 14, 15, 16
17, 18, 19, 20, 21, 22, 23, 24, 25, 26, 27, 28, 29, 30, 31, 32
33, 34, 35, 36, 37, 38, 39, 40, 41, 42, 43, 44, 45, 46, 47, 48
49, 50, 51, 52, 53, 54, 55, 56, 57, 58, 59, 60, 61, 62, 63, 64
65, 66, 67, 68, 69, 70, 71, 72, 73, 74, 75, 76, 77, 78, 79, 80
81, 82, 83, 84, 85, 86, 87, 88, 89, 90, 91, 92, 93, 94, 95, 96
97, 98, 99, 100, 101, 102, 103, 104, 105, 106, 107, 108, 109, 110, 111, 112
113, 114, 115, 116, 117, 118, 119, 120, 121, 122, 123, 124, 125, 126, 127, 128
129, 130, 131, 132, 133, 134, 135, 136, 137, 138, 139, 140, 141, 142, 143, 144
145, 146, 147, 148, 149, 150, 151, 152, 153, 154, 155, 156, 157, 158, 159, 160
161, 162, 163, 164, 165, 166, 167, 168, 169, 170, 171, 172, 173, 174, 175, 176
177, 178, 179, 180, 181, 182, 183, 184, 185, 186, 187, 188, 189, 190, 191, 192
193, 194, 195, 196, 197, 198, 199, 200, 201, 202, 203, 204, 205, 206, 207, 208
209, 210, 211, 212, 213, 214, 215, 216, 217, 218, 219, 220, 221, 222, 223, 224
225, 226, 227, 228, 229, 230, 231, 232, 233, 234, 235, 236, 237, 238, 239, 240
241, 242, 243, 244, 245, 246, 247, 248, 249, 250, 251, 252, 253, 254, 255, 256
257, 258, 259, 260, 261, 262, 263, 264, 265, 266, 267, 268, 269, 270, 271, 272
273, 274, 275, 276, 277, 278, 279, 280, 281, 282, 283, 284, 285, 286, 287, 288
289, 290, 291, 292, 293, 294, 295, 296, 297, 298, 299, 300, 301, 302, 303, 304
305, 306, 307, 308, 309, 310, 311, 312, 313, 314, 315, 316, 317, 318, 319, 320
321, 322, 323, 324, 325, 326, 327, 328, 329, 330, 331, 332, 333, 334, 335, 336
337, 338, 339, 340, 341, 342, 343, 344, 345, 346, 347, 348, 349, 350, 351, 352
353, 354, 355, 356, 357, 358, 359, 360, 361, 362, 363, 364, 365, 366, 367, 368
369, 370, 371, 372, 373, 374, 375, 376, 377, 378, 379, 380, 381, 382, 383, 384
385, 386, 387, 388, 389, 390, 391, 392, 393, 394, 395, 396, 397, 398, 399, 400
401, 402, 403, 404, 405, 406, 407, 408, 409, 410, 411, 412, 413, 414, 415, 416
417, 418, 419, 420, 421, 422, 423, 424, 425, 426, 427, 428, 429, 430, 431, 432
433, 434, 435, 436, 437, 438, 439, 440, 441, 442, 443, 444, 445, 446, 447, 448
449, 450, 451, 452, 453, 454, 455, 456, 457, 458, 459, 460, 461, 462, 463, 464
465, 466, 467, 468, 469, 470, 471, 472, 473, 474, 475, 476, 477, 478, 479, 480
481, 482, 483, 484, 485, 486, 487, 488, 489, 490, 491, 492, 493, 494, 495, 496
497, 498, 499, 500, 501, 502, 503, 504, 505, 506, 507, 508, 509, 510, 511, 512
513, 514, 515, 516, 517, 518, 519, 520, 521, 522, 523, 524, 525, 526, 527, 528
529, 530, 531, 532, 533, 534, 535, 536, 537, 538, 539, 540, 541, 542, 543, 544
545, 546, 547, 548, 549, 550, 551, 552, 553, 554, 555, 556, 557, 558, 559, 560
561, 562, 563, 564, 565, 566, 567, 568, 569, 570, 571, 572, 573, 574, 575, 576
577, 578, 579, 580, 581, 582, 583, 584, 585, 586, 587, 588, 589, 590, 591, 592
593, 594, 595, 596, 597, 598, 599, 600, 601, 602, 603, 604, 605, 606, 607, 608
609, 610, 611, 612, 613, 614, 615, 616, 617, 618, 619, 620, 621, 622, 623, 624
625, 626, 627, 628, 629, 630, 631, 632, 633, 634, 635, 636, 637, 638, 639, 640
641, 642, 643, 644, 645, 646, 647, 648, 649, 650, 651, 652, 653, 654, 655, 656
657, 658, 659, 660, 661, 662, 663, 664, 665, 666, 667, 668, 669, 670, 671, 672
673, 674, 675, 676, 677, 678, 679, 680, 681, 682, 683, 684, 685, 686, 687, 688
689, 690, 691, 692, 693, 694, 695, 696, 697, 698, 699, 700, 701, 702, 703, 704
705, 706, 707, 708, 709, 710, 711, 712, 713, 714, 715, 716, 717, 718, 719, 720
721, 722, 723, 724, 725, 726, 727, 728, 729, 730, 731, 732, 733, 734, 735, 736
737, 738, 739, 740, 741, 742, 743, 744, 745, 746, 747, 748, 749, 750, 751, 752
753, 754, 755, 756, 757, 758, 759, 760, 761, 762, 763, 764, 765
*MATERIAL, NAME=Steel
*ELASTIC
210000.0, 0.300
*DENSITY
7.810000e-09
*EXPANSION
1.200000e-05
*SOLID SECTION, ELSET=SOLID, MATERIAL=Steel
*BOUNDARY
SYM0, 2, 2
SYM90, 1, 1
FIXZ, 3, 3
*INITIAL CONDITIONS, TYPE=TEMPERATURE
ALLN, 20.000
*STEP
*STATIC
*DLOAD
SOLID, CENTRIF, 6.316547e+06, 0., 0., 0., 0., 0., 1.
*TEMPERATURE
1, 20.0000
2, 20.0000
3, 20.0000
4, 20.0000
5, 20.0000
6, 20.0000
7, 20.0000
8, 20.0000
9, 20.0000
10, 20.0000
11, 20.0000
12, 20.0000
13, 20.0000
14, 20.0000
15, 20.0000
16, 20.0000
17, 20.0000
18, 20.0000
19, 20.0000
20, 20.0000
21, 20.0000
22, 20.0000
23, 20.0000
24, 20.0000
25, 20.0000
26, 20.0000
27, 20.0000
28, 20.0000
29, 20.0000
30, 20.0000
31, 20.0000
32, 20.0000
33, 20.0000
34, 20.0000
35, 20.0000
36, 20.0000
37, 20.0000
38, 20.0000
39, 20.0000
40, 20.0000
41, 20.0000
42, 20.0000
43, 20.0000
44, 20.0000
45, 20.0000
46, 20.0000
47, 20.0000
48, 20.0000
49, 20.0000
50, 20.0000
51, 20.0000
52, 20.0000
53, 20.0000
54, 20.0000
55, 20.0000
56, 20.0000
57, 20.0000
58, 20.0000
59, 20.0000
60, 20.0000
61, 20.0000
62, 20.0000
63, 20.0000
64, 20.0000
65, 20.0000
66, 20.0000
67, 20.0000
68, 20.0000
69, 20.0000
70, 20.0000
71, 20.0000
72, 20.0000
73, 20.0000
74, 20.0000
75, 20.0000
76, 20.0000
77, 20.0000
78, 20.0000
79, 20.0000
80, 20.0000
81, 20.0000
82, 20.0000
83, 20.0000
84, 20.0000
85, 20.0000
86, 20.0000
87, 20.0000
88, 20.0000
89, 20.0000
90, 20.0000
91, 20.0000
92, 20.0000
93, 20.0000
94, 20.0000
95, 20.0000
96, 20.0000
97, 20.0000
98, 20.0000
99, 20.0000
100, 20.0000
101, 20.0000
102, 20.0000
103, 20.0000
104, 20.0000
105, 20.0000
106, 20.0000
107, 20.0000
108, 20.0000
109, 20.0000
110, 20.0000
111, 20.0000
112, 20.0000
113, 20.0000
114, 20.0000
115, 20.0000
116, 20.0000
117, 20.0000
118, 20.0000
119, 20.0000
120, 20.0000
121, 20.0000
122, 20.0000
123, 20.0000
124, 20.0000
125, 20.0000
126, 20.0000
127, 20.0000
128, 20.0000
129, 20.0000
130, 20.0000
131, 20.0000
132, 20.0000
133, 20.0000
134, 20.0000
135, 20.0000
136, 20.0000
137, 20.0000
138, 20.0000
139, 20.0000
140, 20.0000
141, 20.0000
142, 20.0000
143, 20.0000
144, 20.0000
145, 20.0000
146, 20.0000
147, 20.0000
148, 20.0000
149, 20.0000
150, 20.0000
151, 20.0000
152, 20.0000
153, 20.0000
154, 20.0000
155, 20.0000
156, 20.0000
157, 20.0000
158, 20.0000
159, 20.0000
160, 20.0000
161, 20.0000
162, 20.0000
163, 20.0000
164, 20.0000
165, 20.0000
166, 20.0000
167, 20.0000
168, 20.0000
169, 20.0000
170, 20.0000
171, 20.0000
172, 20.0000
173, 20.0000
174, 20.0000
175, 20.0000
176, 20.0000
177, 20.0000
178, 20.0000
179, 20.0000
180, 20.0000
181, 20.0000
182, 20.0000
183, 20.0000
184, 20.0000
185, 20.0000
186, 20.0000
187, 20.0000
188, 20.0000
189, 20.0000
190, 20.0000
191, 20.0000
192, 20.0000
193, 20.0000
194, 20.0000
195, 20.0000
196, 20.0000
197, 20.0000
198, 20.0000
199, 20.0000
200, 20.0000
201, 20.0000
202, 20.0000
203, 20.0000
204, 20.0000
205, 20.0000
206, 20.0000
207, 20.0000
208, 20.0000
209, 20.0000
210, 20.0000
211, 20.0000
212, 20.0000
213, 20.0000
214, 20.0000
215, 20.0000
216, 20.0000
217, 20.0000
218, 20.0000
219, 20.0000
220, 20.0000
221, 20.0000
222, 20.0000
223, 20.0000
224, 20.0000
225, 20.0000
226, 20.0000
227, 20.0000
228, 20.0000
229, 20.0000
230, 20.0000
231, 20.0000
232, 20.0000
233, 20.0000
234, 20.0000
235, 20.0000
236, 20.0000
237, 20.0000
238, 20.0000
239, 20.0000
240, 20.0000
241, 20.0000
242, 20.0000
243, 20.0000
244, 20.0000
245, 20.0000
246, 20.0000
247, 20.0000
248, 20.0000
249, 20.0000
250, 20.0000
251, 20.0000
252, 20.0000
253, 20.0000
254, 20.0000
255, 20.0000
256, 20.0000
257, 20.0000
258, 20.0000
259, 20.0000
260, 20.0000
261, 20.0000
262, 20.0000
263, 20.0000
264, 20.0000
265, 20.0000
266, 20.0000
267, 20.0000
268, 20.0000
269, 20.0000
270, 20.0000
271, 20.0000
272, 20.0000
273, 20.0000
274, 20.0000
275, 20.0000
276, 20.0000
277, 20.0000
278, 20.0000
279, 20.0000
280, 20.0000
281, 20.0000
282, 20.0000
283, 20.0000
284, 20.0000
285, 20.0000
286, 20.0000
287, 20.0000
288, 20.0000
289, 20.0000
290, 20.0000
291, 20.0000
292, 20.0000
293, 20.0000
294, 20.0000
295, 20.0000
296, 20.0000
297, 20.0000
298, 20.0000
299, 20.0000
300, 20.0000
301, 20.0000
302, 20.0000
303, 20.0000
304, 20.0000
305, 20.0000
306, 20.0000
307, 20.0000
308, 20.0000
309, 20.0000
310, 20.0000
311, 20.0000
312, 20.0000
313, 20.0000
314, 20.0000
315, 20.0000
316, 20.0000
317, 20.0000
318, 20.0000
319, 20.0000
320, 20.0000
321, 20.0000
322, 20.0000
323, 20.0000
324, 20.0000
325, 20.0000
326, 20.0000
327, 20.0000
328, 20.0000
329, 20.0000
330, 20.0000
331, 20.0000
332, 20.0000
333, 20.0000
334, 20.0000
335, 20.0000
336, 20.0000
337, 20.0000
338, 20.0000
339, 20.0000
340, 20.0000
341, 20.0000
342, 20.0000
343, 20.0000
344, 20.0000
345, 20.0000
346, 20.0000
347, 20.0000
348, 20.0000
349, 20.0000
350, 20.0000
351, 20.0000
352, 20.0000
353, 20.0000
354, 20.0000
355, 20.0000
356, 20.0000
357, 20.0000
358, 20.0000
359, 20.0000
360, 20.0000
361, 20.0000
362, 20.0000
363, 20.0000
364, 20.0000
365, 20.0000
366, 20.0000
367, 20.0000
368, 20.0000
369, 20.0000
370, 20.0000
371, 20.0000
372, 20.0000
373, 20.0000
374, 20.0000
375, 20.0000
376, 20.0000
377, 20.0000
378, 20.0000
379, 20.0000
380, 20.0000
381, 20.0000
382, 20.0000
383, 20.0000
384, 20.0000
385, 20.0000
386, 20.0000
387, 20.0000
388, 20.0000
389, 20.0000
390, 20.0000
391, 20.0000
392, 20.0000
393, 20.0000
394, 20.0000
395, 20.0000
396, 20.0000
397, 20.0000
398, 20.0000
399, 20.0000
400, 20.0000
401, 20.0000
402, 20.0000
403, 20.0000
404, 20.0000
405, 20.0000
406, 20.0000
407, 20.0000
408, 20.0000
409, 20.0000
410, 20.0000
411, 20.0000
412, 20.0000
413, 20.0000
414, 20.0000
415, 20.0000
416, 20.0000
417, 20.0000
418, 20.0000
419, 20.0000
420, 20.0000
421, 20.0000
422, 20.0000
423, 20.0000
424, 20.0000
425, 20.0000
426, 20.0000
427, 20.0000
428, 20.0000
429, 20.0000
430, 20.0000
431, 20.0000
432, 20.0000
433, 20.0000
434, 20.0000
435, 20.0000
436, 20.0000
437, 20.0000
438, 20.0000
439, 20.0000
440, 20.0000
441, 20.0000
442, 20.0000
443, 20.0000
444, 20.0000
445, 20.0000
446, 20.0000
447, 20.0000
448, 20.0000
449, 20.0000
450, 20.0000
451, 20.0000
452, 20.0000
453, 20.0000
454, 20.0000
455, 20.0000
456, 20.0000
457, 20.0000
458, 20.0000
459, 20.0000
460, 20.0000
461, 20.0000
462, 20.0000
463, 20.0000
464, 20.0000
465, 20.0000
466, 20.0000
467, 20.0000
468, 20.0000
469, 20.0000
470, 20.0000
471, 20.0000
472, 20.0000
473, 20.0000
474, 20.0000
475, 20.0000
476, 20.0000
477, 20.0000
478, 20.0000
479, 20.0000
480, 20.0000
481, 20.0000
482, 20.0000
483, 20.0000
484, 20.0000
485, 20.0000
486, 20.0000
487, 20.0000
488, 20.0000
489, 20.0000
490, 20.0000
491, 20.0000
492, 20.0000
493, 20.0000
494, 20.0000
495, 20.0000
496, 20.0000
497, 20.0000
498, 20.0000
499, 20.0000
500, 20.0000
501, 20.0000
502, 20.0000
503, 20.0000
504, 20.0000
505, 20.0000
506, 20.0000
507, 20.0000
508, 20.0000
509, 20.0000
510, 20.0000
511, 20.0000
512, 20.0000
513, 20.0000
514, 20.0000
515, 20.0000
516, 20.0000
517, 20.0000
518, 20.0000
519, 20.0000
520, 20.0000
521, 20.0000
522, 20.0000
523, 20.0000
524, 20.0000
525, 20.0000
526, 20.0000
527, 20.0000
528, 20.0000
529, 20.0000
530, 20.0000
531, 20.0000
532, 20.0000
533, 20.0000
534, 20.0000
535, 20.0000
536, 20.0000
537, 20.0000
538, 20.0000
539, 20.0000
540, 20.0000
541, 20.0000
542, 20.0000
543, 20.0000
544, 20.0000
545, 20.0000
546, 20.0000
547, 20.0000
548, 20.0000
549, 20.0000
550, 20.0000
551, 20.0000
552, 20.0000
553, 20.0000
554, 20.0000
555, 20.0000
556, 20.0000
557, 20.0000
558, 20.0000
559, 20.0000
560, 20.0000
561, 20.0000
562, 20.0000
563, 20.0000
564, 20.0000
565, 20.0000
566, 20.0000
567, 20.0000
568, 20.0000
569, 20.0000
570, 20.0000
571, 20.0000
572, 20.0000
573, 20.0000
574, 20.0000
575, 20.0000
576, 20.0000
577, 20.0000
578, 20.0000
579, 20.0000
580, 20.0000
581, 20.0000
582, 20.0000
583, 20.0000
584, 20.0000
585, 20.0000
586, 20.0000
587, 20.0000
588, 20.0000
589, 20.0000
590, 20.0000
591, 20.0000
592, 20.0000
593, 20.0000
594, 20.0000
595, 20.0000
596, 20.0000
597, 20.0000
598, 20.0000
599, 20.0000
600, 20.0000
601, 20.0000
602, 20.0000
603, 20.0000
604, 20.0000
605, 20.0000
606, 20.0000
607, 20.0000
608, 20.0000
609, 20.0000
610, 20.0000
611, 20.0000
612, 20.0000
613, 20.0000
614, 20.0000
615, 20.0000
616, 20.0000
617, 20.0000
618, 20.0000
619, 20.0000
620, 20.0000
621, 20.0000
622, 20.0000
623, 20.0000
624, 20.0000
625, 20.0000
626, 20.0000
627, 20.0000
628, 20.0000
629, 20.0000
630, 20.0000
631, 20.0000
632, 20.0000
633, 20.0000
634, 20.0000
635, 20.0000
636, 20.0000
637, 20.0000
638, 20.0000
639, 20.0000
640, 20.0000
641, 20.0000
642, 20.0000
643, 20.0000
644, 20.0000
645, 20.0000
646, 20.0000
647, 20.0000
648, 20.0000
649, 20.0000
650, 20.0000
651, 20.0000
652, 20.0000
653, 20.0000
654, 20.0000
655, 20.0000
656, 20.0000
657, 20.0000
658, 20.0000
659, 20.0000
660, 20.0000
661, 20.0000
662, 20.0000
663, 20.0000
664, 20.0000
665, 20.0000
666, 20.0000
667, 20.0000
668, 20.0000
669, 20.0000
670, 20.0000
671, 20.0000
672, 20.0000
673, 20.0000
674, 20.0000
675, 20.0000
676, 20.0000
677, 20.0000
678, 20.0000
679, 20.0000
680, 20.0000
681, 20.0000
682, 20.0000
683, 20.0000
684, 20.0000
685, 20.0000
686, 20.0000
687, 20.0000
688, 20.0000
689, 20.0000
690, 20.0000
691, 20.0000
692, 20.0000
693, 20.0000
694, 20.0000
695, 20.0000
696, 20.0000
697, 20.0000
698, 20.0000
699, 20.0000
700, 20.0000
701, 20.0000
702, 20.0000
703, 20.0000
704, 20.0000
705, 20.0000
706, 20.0000
707, 20.0000
708, 20.0000
709, 20.0000
710, 20.0000
711, 20.0000
712, 20.0000
713, 20.0000
714, 20.0000
715, 20.0000
716, 20.0000
717, 20.0000
718, 20.0000
719, 20.0000
720, 20.0000
721, 20.0000
722, 20.0000
723, 20.0000
724, 20.0000
725, 20.0000
726, 20.0000
727, 20.0000
728, 20.0000
729, 20.0000
730, 20.0000
731, 20.0000
732, 20.0000
733, 20.0000
734, 20.0000
735, 20.0000
736, 20.0000
737, 20.0000
738, 20.0000
739, 20.0000
740, 20.0000
741, 20.0000
742, 20.0000
743, 20.0000
744, 20.0000
745, 20.0000
746, 20.0000
747, 20.0000
748, 20.0000
749, 20.0000
750, 20.0000
751, 20.0000
752, 20.0000
753, 20.0000
754, 20.0000
755, 20.0000
756, 20.0000
757, 20.0000
758, 20.0000
759, 20.0000
760, 20.0000
761, 20.0000
762, 20.0000
763, 20.0000
764, 20.0000
765, 20.0000
*EL PRINT, ELSET=SOLID
S
*END STEP
